&FORCE_EVAL
  METHOD Quickstep
  &DFT
    BASIS_SET_FILE_NAME BASIS_MOLOPT_UZH
    POTENTIAL_FILE_NAME POTENTIAL_UZH
    &MGRID
      CUTOFF 600
      REL_CUTOFF 60
      NGRIDS 5
    &END MGRID
    &QS
      METHOD GPW
      EPS_DEFAULT 1.0E-12
    &END QS
    &POISSON
      PERIODIC XYZ
      PSOLVER PERIODIC
    &END
    &SCF
      EPS_SCF 1.0E-6
      SCF_GUESS ATOMIC
      MAX_SCF 10
      &OUTER_SCF .TRUE.
         EPS_SCF 1.0E-6
         MAX_SCF 20
      &END OUTER_SCF
      &OT .TRUE.
         MINIMIZER DIIS
         ALGORITHM STRICT
         PRECONDITIONER FULL_KINETIC
      &END OT 
    &END SCF
    &XC
      &XC_FUNCTIONAL PBE
      &END XC_FUNCTIONAL
      &WF_CORRELATION
        &RI_RPA
          QUADRATURE_POINTS 100
          &GW
           CORR_OCC   10
           CORR_VIRT  20
          &END GW
        &END RI_RPA
      &END
    &END XC
  &END DFT
  &SUBSYS
    &CELL
      PERIODIC XYZ
      MULTIPLE_UNIT_CELL 1 1 1
      CELL_FILE_FORMAT CIF
      CELL_FILE_NAME CsPbCl3.cif
    &END CELL
    &TOPOLOGY
      CONN_FILE_FORMAT OFF
      COORD_FILE_FORMAT XYZ
      COORD_FILE_NAME CsPbCl3.xyz
    &END TOPOLOGY
    &KIND Cs
      BASIS_SET TZVP-MOLOPT-PBE-GTH-q9
      POTENTIAL GTH-PBE-q9
    &END KIND
    &KIND Pb
      BASIS_SET TZVPP-MOLOPT-PBE-GTH-q22
      POTENTIAL GTH-PBE-q22
    &END KIND
    &KIND Cl
      BASIS_SET TZVP-MOLOPT-PBE-GTH-q7
      POTENTIAL GTH-PBE-q7
    &END KIND
  &END SUBSYS
&END FORCE_EVAL
&GLOBAL
  RUN_TYPE     ENERGY
  PROJECT      GW-CsPbCl3
  PRINT_LEVEL  MEDIUM
&END GLOBAL
