&FORCE_EVAL
  METHOD Quickstep
  &DFT
    BASIS_SET_FILE_NAME BASIS_def2_QZVP_RI_ALL
    POTENTIAL_FILE_NAME POTENTIAL
    &MGRID
      CUTOFF 400
      REL_CUTOFF 50
    &END MGRID
    &QS
      METHOD GAPW
    &END QS
    &POISSON
      PERIODIC NONE
      PSOLVER MT
    &END
    &SCF
      EPS_SCF 1.0E-6
      SCF_GUESS ATOMIC
      MAX_SCF 200
    &END SCF
    &XC
      &XC_FUNCTIONAL PBE
      &END XC_FUNCTIONAL
      &WF_CORRELATION
        &RI_RPA
          QUADRATURE_POINTS 100
          &GW
           CORR_OCC   10
           CORR_VIRT  20
           RI_SIGMA_X
          &END GW
        &END RI_RPA
      &END
    &END XC
  &END DFT
  &SUBSYS
    &CELL
      ABC 10.0 10.0 10.0
      PERIODIC NONE
    &END CELL
    &COORD
C        0.00000000       1.39524800       0.00000000
C        1.20832000       0.69762400       0.00000000
C        1.20832000      -0.69762400       0.00000000
C        0.00000000      -1.39524800       0.00000000
C       -1.20832000      -0.69762400       0.00000000
C       -1.20832000       0.69762400       0.00000000
H        0.00000000       2.48236000       0.00000000
H        2.14978700       1.24118000       0.00000000
H        2.14978700      -1.24118000       0.00000000
H        0.00000000      -2.48236000       0.00000000
H       -2.14978700      -1.24118000       0.00000000
H       -2.14978700       1.24118000       0.00000000
    &END COORD
    &TOPOLOGY
      &CENTER_COORDINATES
      &END
    &END TOPOLOGY
    &KIND H
      BASIS_SET        def2-QZVP
      BASIS_SET RI_AUX RI-5Z
      POTENTIAL ALL
    &END KIND
    &KIND C
      BASIS_SET        def2-QZVP
      BASIS_SET RI_AUX RI-5Z
      POTENTIAL ALL
    &END KIND
  &END SUBSYS
&END FORCE_EVAL
&GLOBAL
  RUN_TYPE     ENERGY
  PROJECT      ALL_ELEC
  PRINT_LEVEL  MEDIUM
&END GLOBAL
